Route #1: 43 7 35 33 51 27
Route #2: 47 44 10 5 8 29 37
Route #3: 2 48 38 34 32 13 46 9 16
Route #4: 26 19 15 49 17 22 50 12 45 4
Route #5: 23 14 39 21 11 28 24 31 3
Route #6: 36 1 18 30 20 42 40
Route #7: 41 25 6
Cost 760